500
[54,57,62,63,64,65,67,72,73,74,80,85,89,93,97,98,101,115,117,119,135,147,150,151,154,156,160,180,182,186,189,191,192,194,195,199,205,206,209,210,212,213,223,225,227,230,231,233,237,245,251,255,258,267,268,270,272,274,276,279,283,284,285,289,291,294,305,306,309,310,313,314,317,321,322,324,327,329,330,335,342,343,350]
[2,2,2,2,1,1,2,1,1,1,1,1,1,1,2,1,1,1,2,1,1,1,2,1,1,1,1,1,1,2,1,1,2,1,1,2,1,1,1,2,1,1,1,1,1,1,1,1,1,1,3,1,1,1,1,2,1,1,1,1,1,1,1,1,1,1,1,1,1,1,1,1,1,1,1,1,2,1,1,1,1,1,2]
